#=======================================================
# FHI-aims file: geometry1.in
# Created using the Atomic Simulation Environment (ASE)
# Thu Oct 29 00:09:13 2020
#=======================================================
lattice_vector 12.1230000000000011 0.0000000000000000 0.0000000000000000 
lattice_vector 0.0000000000000000 8.5722555083245169 0.0000000000000000 
lattice_vector 0.0000000000000000 0.0000000000000000 37.0999517498588745 
atom 2.0205000000000002 1.4287092513874193 15.0000000000000000 Al
    constrain_relaxation .true.
atom 6.0615000000000006 1.4287092513874193 15.0000000000000000 Al
    constrain_relaxation .true.
atom 10.1025000000000009 1.4287092513874193 15.0000000000000000 Al
    constrain_relaxation .true.
atom 2.0205000000000002 4.2861277541622584 15.0000000000000000 Al
    constrain_relaxation .true.
atom 6.0615000000000006 4.2861277541622584 15.0000000000000000 Al
    constrain_relaxation .true.
atom 10.1025000000000009 4.2861277541622584 15.0000000000000000 Al
    constrain_relaxation .true.
atom 2.0205000000000002 7.1435462569370962 15.0000000000000000 Al
    constrain_relaxation .true.
atom 6.0615000000000006 7.1435462569370962 15.0000000000000000 Al
    constrain_relaxation .true.
atom 10.1025000000000009 7.1435462569370962 15.0000000000000000 Al
    constrain_relaxation .true.
atom 0.0000000000000000 0.0000000000000000 16.4287092513874207 Al
atom 4.0410000000000004 0.0000000000000000 16.4287092513874207 Al
atom 8.0820000000000007 0.0000000000000000 16.4287092513874207 Al
atom 0.0000000000000000 2.8574185027748387 16.4287092513874207 Al
atom 4.0410000000000004 2.8574185027748387 16.4287092513874207 Al
atom 8.0820000000000007 2.8574185027748387 16.4287092513874207 Al
atom 0.0000000000000000 5.7148370055496773 16.4287092513874207 Al
atom 4.0410000000000004 5.7148370055496773 16.4287092513874207 Al
atom 8.0820000000000007 5.7148370055496773 16.4287092513874207 Al
atom 2.0205000000000002 1.4287092513874193 17.8574185027748378 Al
atom 6.0615000000000006 1.4287092513874193 17.8574185027748378 Al
atom 10.1025000000000009 1.4287092513874193 17.8574185027748378 Al
atom 2.0205000000000002 4.2861277541622584 17.8574185027748378 Al
atom 6.0615000000000006 4.2861277541622584 17.8574185027748378 Al
atom 10.1025000000000009 4.2861277541622584 17.8574185027748378 Al
atom 2.0205000000000002 7.1435462569370962 17.8574185027748378 Al
atom 6.0615000000000006 7.1435462569370962 17.8574185027748378 Al
atom 10.1025000000000009 7.1435462569370962 17.8574185027748378 Al
atom 0.0000000000000000 0.0000000000000000 19.2861277541622584 Al
atom 4.0410000000000004 0.0000000000000000 19.2861277541622584 Al
atom 8.0820000000000007 0.0000000000000000 19.2861277541622584 Al
atom 0.0000000000000000 2.8574185027748387 19.2861277541622584 Al
atom 4.0410000000000004 2.8574185027748387 19.2861277541622584 Al
atom 8.0820000000000007 2.8574185027748387 19.2861277541622584 Al
atom 0.0000000000000000 5.7148370055496773 19.2861277541622584 Al
atom 4.0410000000000004 5.7148370055496773 19.2861277541622584 Al
atom 8.0820000000000007 5.7148370055496773 19.2861277541622584 Al
atom 1.8291188167573527 4.7486466113093018 20.6019927498588764 C
atom 3.0891038167573530 4.7486466113093018 21.4575427498588773 C
atom 4.2186838167573528 4.7486466113093018 20.6270897498588752 O
	 constrain_relaxation .true.
atom 0.9323838167573526 4.7486466113093018 21.2612617498588747 H
atom 1.8170998167573527 3.8393886113093019 19.9602187498588748 H
atom 1.8170878167573528 5.6574566113093017 19.9595837498588757 H
atom 3.1011228167573526 5.6579046113093021 22.0993167498588754 H
atom 3.1011348167573529 5.6574566113093017 22.0999517498588745 H
atom 4.9731978167573532 4.7486466113093018 21.1910687498588750 H
