#=======================================================
# FHI-aims file: geometry1.in
# Created using the Atomic Simulation Environment (ASE)
# Thu Oct 29 00:09:12 2020
#=======================================================
lattice_vector 12.1230000000000011 0.0000000000000000 0.0000000000000000 
lattice_vector 0.0000000000000000 8.5722555083245169 0.0000000000000000 
lattice_vector 0.0000000000000000 0.0000000000000000 38.6244124879602850 
atom 2.0205000000000002 1.4287092513874193 14.9999999999999982 Al
    constrain_relaxation .true.
atom 6.0615000000000006 1.4287092513874193 14.9999999999999982 Al
    constrain_relaxation .true.
atom 10.1025000000000009 1.4287092513874193 14.9999999999999982 Al
    constrain_relaxation .true.
atom 2.0205000000000002 4.2861277541622584 14.9999999999999982 Al
    constrain_relaxation .true.
atom 6.0615000000000006 4.2861277541622584 14.9999999999999982 Al
    constrain_relaxation .true.
atom 10.1025000000000009 4.2861277541622584 14.9999999999999982 Al
    constrain_relaxation .true.
atom 2.0205000000000002 7.1435462569370962 14.9999999999999982 Al
    constrain_relaxation .true.
atom 6.0615000000000006 7.1435462569370962 14.9999999999999982 Al
    constrain_relaxation .true.
atom 10.1025000000000009 7.1435462569370962 14.9999999999999982 Al
    constrain_relaxation .true.
atom 0.0000000000000000 0.0000000000000000 16.4287092513874171 Al
atom 4.0410000000000004 0.0000000000000000 16.4287092513874171 Al
atom 8.0820000000000007 0.0000000000000000 16.4287092513874171 Al
atom 0.0000000000000000 2.8574185027748387 16.4287092513874171 Al
atom 4.0410000000000004 2.8574185027748387 16.4287092513874171 Al
atom 8.0820000000000007 2.8574185027748387 16.4287092513874171 Al
atom 0.0000000000000000 5.7148370055496773 16.4287092513874171 Al
atom 4.0410000000000004 5.7148370055496773 16.4287092513874171 Al
atom 8.0820000000000007 5.7148370055496773 16.4287092513874171 Al
atom 2.0205000000000002 1.4287092513874193 17.8574185027748378 Al
atom 6.0615000000000006 1.4287092513874193 17.8574185027748378 Al
atom 10.1025000000000009 1.4287092513874193 17.8574185027748378 Al
atom 2.0205000000000002 4.2861277541622584 17.8574185027748378 Al
atom 6.0615000000000006 4.2861277541622584 17.8574185027748378 Al
atom 10.1025000000000009 4.2861277541622584 17.8574185027748378 Al
atom 2.0205000000000002 7.1435462569370962 17.8574185027748378 Al
atom 6.0615000000000006 7.1435462569370962 17.8574185027748378 Al
atom 10.1025000000000009 7.1435462569370962 17.8574185027748378 Al
atom 0.0000000000000000 0.0000000000000000 19.2861277541622584 Al
atom 4.0410000000000004 0.0000000000000000 19.2861277541622584 Al
atom 8.0820000000000007 0.0000000000000000 19.2861277541622584 Al
atom 0.0000000000000000 2.8574185027748387 19.2861277541622584 Al
atom 4.0410000000000004 2.8574185027748387 19.2861277541622584 Al
atom 8.0820000000000007 2.8574185027748387 19.2861277541622584 Al
atom 0.0000000000000000 5.7148370055496773 19.2861277541622584 Al
atom 4.0410000000000004 5.7148370055496773 19.2861277541622584 Al
atom 8.0820000000000007 5.7148370055496773 19.2861277541622584 Al
atom 1.0029811563971514 3.9234770901198286 22.1264534879602870 C
atom 2.2629661563971517 3.9234770901198286 22.9820034879602879 C
atom 3.3925461563971515 3.9234770901198286 22.1515504879602858 O
	 constrain_relaxation .true.
atom 0.1062461563971513 3.9234770901198286 22.7857224879602853 H
atom 0.9909621563971514 3.0142190901198287 21.4846794879602854 H
atom 0.9909501563971514 4.8322870901198289 21.4840444879602863 H
atom 2.2749851563971513 4.8327350901198285 23.6237774879602895 H
atom 2.2749971563971516 4.8322870901198289 23.6244124879602850 H
atom 4.1470601563971519 3.9234770901198286 22.7155294879602891 H
