#=======================================================
# FHI-aims file: geometry1.in
# Created using the Atomic Simulation Environment (ASE)
# Thu Oct 29 00:09:11 2020
#=======================================================
lattice_vector 12.1230000000000011 0.0000000000000000 0.0000000000000000 
lattice_vector 0.0000000000000000 8.5722555083245169 0.0000000000000000 
lattice_vector 0.0000000000000000 0.0000000000000000 37.0446888548989932 
atom 2.0205000000000002 1.4287092513874193 15.0000000000000018 Al
    constrain_relaxation .true.
atom 6.0615000000000006 1.4287092513874193 15.0000000000000018 Al
    constrain_relaxation .true.
atom 10.1025000000000009 1.4287092513874193 15.0000000000000018 Al
    constrain_relaxation .true.
atom 2.0205000000000002 4.2861277541622584 15.0000000000000018 Al
    constrain_relaxation .true.
atom 6.0615000000000006 4.2861277541622584 15.0000000000000018 Al
    constrain_relaxation .true.
atom 10.1025000000000009 4.2861277541622584 15.0000000000000018 Al
    constrain_relaxation .true.
atom 2.0205000000000002 7.1435462569370962 15.0000000000000018 Al
    constrain_relaxation .true.
atom 6.0615000000000006 7.1435462569370962 15.0000000000000018 Al
    constrain_relaxation .true.
atom 10.1025000000000009 7.1435462569370962 15.0000000000000018 Al
    constrain_relaxation .true.
atom 0.0000000000000000 0.0000000000000000 16.4287092513874207 Al
atom 4.0410000000000004 0.0000000000000000 16.4287092513874207 Al
atom 8.0820000000000007 0.0000000000000000 16.4287092513874207 Al
atom 0.0000000000000000 2.8574185027748387 16.4287092513874207 Al
atom 4.0410000000000004 2.8574185027748387 16.4287092513874207 Al
atom 8.0820000000000007 2.8574185027748387 16.4287092513874207 Al
atom 0.0000000000000000 5.7148370055496773 16.4287092513874207 Al
atom 4.0410000000000004 5.7148370055496773 16.4287092513874207 Al
atom 8.0820000000000007 5.7148370055496773 16.4287092513874207 Al
atom 2.0205000000000002 1.4287092513874193 17.8574185027748413 Al
atom 6.0615000000000006 1.4287092513874193 17.8574185027748413 Al
atom 10.1025000000000009 1.4287092513874193 17.8574185027748413 Al
atom 2.0205000000000002 4.2861277541622584 17.8574185027748413 Al
atom 6.0615000000000006 4.2861277541622584 17.8574185027748413 Al
atom 10.1025000000000009 4.2861277541622584 17.8574185027748413 Al
atom 2.0205000000000002 7.1435462569370962 17.8574185027748413 Al
atom 6.0615000000000006 7.1435462569370962 17.8574185027748413 Al
atom 10.1025000000000009 7.1435462569370962 17.8574185027748413 Al
atom 0.0000000000000000 0.0000000000000000 19.2861277541622584 Al
atom 4.0410000000000004 0.0000000000000000 19.2861277541622584 Al
atom 8.0820000000000007 0.0000000000000000 19.2861277541622584 Al
atom 0.0000000000000000 2.8574185027748387 19.2861277541622584 Al
atom 4.0410000000000004 2.8574185027748387 19.2861277541622584 Al
atom 8.0820000000000007 2.8574185027748387 19.2861277541622584 Al
atom 0.0000000000000000 5.7148370055496773 19.2861277541622584 Al
atom 4.0410000000000004 5.7148370055496773 19.2861277541622584 Al
atom 8.0820000000000007 5.7148370055496773 19.2861277541622584 Al
atom 1.1740386031709216 3.3088066854964135 20.5467298548989916 C
atom 2.4340236031709219 3.3088066854964135 21.4022798548989925 C
atom 3.5636036031709217 3.3088066854964135 20.5718268548989940 O
	 constrain_relaxation .true.
atom 0.2773036031709215 3.3088066854964135 21.2059988548989935 H
atom 1.1620196031709216 2.3995486854964136 19.9049558548989936 H
atom 1.1620076031709217 4.2176166854964139 19.9043208548989909 H
atom 2.4460426031709215 4.2180646854964134 22.0440538548989906 H
atom 2.4460546031709218 4.2176166854964139 22.0446888548989932 H
atom 4.3181176031709221 3.3088066854964135 21.1358058548989902 H
