#=======================================================
# FHI-aims file: geometry.in
# Created using the Atomic Simulation Environment (ASE)
# Wed Nov 11 15:46:36 2020
#=======================================================
lattice_vector 12.1230000000000011 0.0000000000000000 0.0000000000000000 
lattice_vector 0.0000000000000000 8.5722555083245169 0.0000000000000000 
lattice_vector 0.0000000000000000 0.0000000000000000 37.3645577701664848 
atom 2.0205000000000002 1.4287092513874193 15.0000000000000018 Al
    constrain_relaxation .true.
atom 6.0615000000000006 1.4287092513874193 15.0000000000000018 Al
    constrain_relaxation .true.
atom 10.1025000000000009 1.4287092513874193 15.0000000000000018 Al
    constrain_relaxation .true.
atom 2.0205000000000002 4.2861277541622584 15.0000000000000018 Al
    constrain_relaxation .true.
atom 6.0615000000000006 4.2861277541622584 15.0000000000000018 Al
    constrain_relaxation .true.
atom 10.1025000000000009 4.2861277541622584 15.0000000000000018 Al
    constrain_relaxation .true.
atom 2.0205000000000002 7.1435462569370962 15.0000000000000018 Al
    constrain_relaxation .true.
atom 6.0615000000000006 7.1435462569370962 15.0000000000000018 Al
    constrain_relaxation .true.
atom 10.1025000000000009 7.1435462569370962 15.0000000000000018 Al
    constrain_relaxation .true.
atom 0.0000000000000000 0.0000000000000000 16.4287092513874207 Al
atom 4.0410000000000004 0.0000000000000000 16.4287092513874207 Al
atom 8.0820000000000007 0.0000000000000000 16.4287092513874207 Al
atom 0.0000000000000000 2.8574185027748387 16.4287092513874207 Al
atom 4.0410000000000004 2.8574185027748387 16.4287092513874207 Al
atom 8.0820000000000007 2.8574185027748387 16.4287092513874207 Al
atom 0.0000000000000000 5.7148370055496773 16.4287092513874207 Al
atom 4.0410000000000004 5.7148370055496773 16.4287092513874207 Al
atom 8.0820000000000007 5.7148370055496773 16.4287092513874207 Al
atom 2.0205000000000002 1.4287092513874193 17.8574185027748413 Al
atom 6.0615000000000006 1.4287092513874193 17.8574185027748413 Al
atom 10.1025000000000009 1.4287092513874193 17.8574185027748413 Al
atom 2.0205000000000002 4.2861277541622584 17.8574185027748413 Al
atom 6.0615000000000006 4.2861277541622584 17.8574185027748413 Al
atom 10.1025000000000009 4.2861277541622584 17.8574185027748413 Al
atom 2.0205000000000002 7.1435462569370962 17.8574185027748413 Al
atom 6.0615000000000006 7.1435462569370962 17.8574185027748413 Al
atom 10.1025000000000009 7.1435462569370962 17.8574185027748413 Al
atom 0.0000000000000000 0.0000000000000000 19.2861277541622584 Al
atom 4.0410000000000004 0.0000000000000000 19.2861277541622584 Al
atom 8.0820000000000007 0.0000000000000000 19.2861277541622584 Al
atom 0.0000000000000000 2.8574185027748387 19.2861277541622584 Al
atom 4.0410000000000004 2.8574185027748387 19.2861277541622584 Al
atom 8.0820000000000007 2.8574185027748387 19.2861277541622584 Al
atom 0.0000000000000000 5.7148370055496773 19.2861277541622584 Al
atom 4.0410000000000004 5.7148370055496773 19.2861277541622584 Al
atom 8.0820000000000007 5.7148370055496773 19.2861277541622584 Al
atom 9.2061500265437228 4.6963710425080931 20.7830104979239465 O
atom 9.2061500265437228 4.6963710425080931 19.7771904979239466 H
atom 8.0000000000000000 4.0000000000000000 21.2861277541622584 C
atom 7.9956211373480670 4.2149886227159632 22.3645577701664848 H
atom 7.1376465837103122 4.5053160269668151 20.8272633072675895 H
atom 8.0355435544475746 2.5143629958169882 20.9914341038415273 C
atom 7.1264034706564354 2.0432476626656864 21.3935141443437011 H
atom 8.0685037451142634 2.3203174556086705 19.9102611272124683 H
atom 8.9071149531394571 2.0356430739248976 21.4587414671110466 H
