#########################################################################################
#
#  Volker Blum, 2017 : Input file for FHI-aims
#
#  Input file control.in : All computational details for fcc Al
#
#########################################################################################
  #
  #  Physical model settings
  #
    xc               pbe
    charge           0.
    spin             none
    relativistic     none
  #
  #  SCF convergence settings
  #
    occupation_type  gaussian 0.1
  #
  #  For periodic boundary conditions
  #
    k_grid 4 4 1
  #
  #  For relaxation:
  #
    relax_geometry bfgs 5.e-3
#    relax_unit_cell full
  #
  #  Output options (examples):
  #
  #  Density of states. The DOS is here evaluated
  #  with an effective 144x144x144 k-point grid.
  #  (12 for each k-space direction in s.c.f., and then denser
  #  by another factor of 12 during post-processing). Check whether the
  #  the DOS is smooth, however - fcc Al may need significantly
  #  more k-points (van Hove singularities in DOS).
  #
  #  The dense dos_kgrid_factors below will take a noticeable amount
  #  of time, but they do lead to a smooth DOS. 
  #
#    output dos -20 30 1000 0.1
#    dos_kgrid_factors  12 12 12 
  #
  #  angular momentum channel resolved density of states
  #
#    output atom_proj_dos -20 30 1000 0.1
  #
  #  High-symmetry k-points for fcc band structure output, if requested.
  # 
#    output band  0.25  0.50  0.75  0.5   0.5   0.5   40	W      L
#    output band  0.5   0.5   0.5   0.25  0.25  0.25  40	L      Lambda
#    output band  0.25  0.25  0.25  0     0     0     40	Lambda Gamma
#    output band  0     0       0   0.00  0.25  0.25  40	Gamma  Delta
#    output band  0.00  0.25  0.25  0     0.5   0.5   40	Delta  X
#    output band  0     0.5   0.5   0.125 0.5   0.625 40	X      Z 
#    output band  0.125 0.5   0.625 0.25  0.50  0.75  40	Z      W
#    output band  0.25  0.50  0.75  0.375 0.375 0.75  40	W      K

################################################################################
#
#  FHI-aims code project
#  VB, Fritz-Haber Institut, 2009
#
#  Suggested "light" defaults for Al atom (to be pasted into control.in file)
#  Be sure to double-check any results obtained with these settings for post-processing,
#  e.g., with the "tight" defaults and larger basis sets.
#
################################################################################
  species        Al
#     global species definitions
    nucleus             13
    mass                26.9815386
#
    l_hartree           6
#
    cut_pot             4.0          2.0  1.0
    basis_dep_cutoff    1e-4
#
    radial_base         41 7.0
    radial_multiplier   2
    angular_grids       specified
      division   0.6594  110
      division   0.8170  194
      division   0.9059  302
      division   1.0363  434
#      division   1.1443  590
#      division   1.2621  770
#      division   2.8177  974
#      outer_grid   974
      outer_grid   434
################################################################################
#
#  Definition of "minimal" basis
#
################################################################################
#     valence basis states
    valence      3  s   2.
    valence      3  p   1.
#     ion occupancy
    ion_occ      3  s   1.
    ion_occ      2  p   6.
################################################################################
#
#  Suggested additional basis functions. For production calculations, 
#  uncomment them one after another (the most important basis functions are
#  listed first).
#
#  Constructed for dimers: 2.0 A, 2.5 A, 3.0 A, 3.75 A, 4.5 A
#
################################################################################
#  "First tier" - improvements: -199.47 meV to -10.63 meV
     ionic 3 d auto
     ionic 3 p auto
     hydro 4 f 4.7
     ionic 3 s auto
#  "Second tier" - improvements: -5.35 meV to -1.57 meV
     hydro 5 g 7
     hydro 3 d 6
#     hydro 2 s 11.6
#     hydro 2 p 0.9
#  "Third tier" - improvements: -0.63 meV to -0.20 meV
#     hydro 5 f 7.6
#     hydro 4 p 7.2
#     hydro 4 s 3.7
#     hydro 4 d 7.6
#  "Fourth tier" - improvements: -0.17 meV to -0.08 meV
#     hydro 4 d 13.6
#     hydro 5 g 11.2
#     hydro 4 d 0.9
#     hydro 1 s 0.4
#     hydro 4 p 0.1
#     hydro 5 f 9.8
#  Further basis functions that fell out of the optimization - noise level...
#     hydro 4 p 5

