#=======================================================
# FHI-aims file: geometry1.in
# Created using the Atomic Simulation Environment (ASE)
# Thu Oct 29 00:09:08 2020
#=======================================================
lattice_vector 12.1230000000000011 0.0000000000000000 0.0000000000000000 
lattice_vector 0.0000000000000000 8.5722555083245169 0.0000000000000000 
lattice_vector 0.0000000000000000 0.0000000000000000 36.8091798920161821 
atom 2.0205000000000002 1.4287092513874193 15.0000000000000018 Al
    constrain_relaxation .true.
atom 6.0615000000000006 1.4287092513874193 15.0000000000000018 Al
    constrain_relaxation .true.
atom 10.1025000000000009 1.4287092513874193 15.0000000000000018 Al
    constrain_relaxation .true.
atom 2.0205000000000002 4.2861277541622584 15.0000000000000018 Al
    constrain_relaxation .true.
atom 6.0615000000000006 4.2861277541622584 15.0000000000000018 Al
    constrain_relaxation .true.
atom 10.1025000000000009 4.2861277541622584 15.0000000000000018 Al
    constrain_relaxation .true.
atom 2.0205000000000002 7.1435462569370962 15.0000000000000018 Al
    constrain_relaxation .true.
atom 6.0615000000000006 7.1435462569370962 15.0000000000000018 Al
    constrain_relaxation .true.
atom 10.1025000000000009 7.1435462569370962 15.0000000000000018 Al
    constrain_relaxation .true.
atom 0.0000000000000000 0.0000000000000000 16.4287092513874207 Al
atom 4.0410000000000004 0.0000000000000000 16.4287092513874207 Al
atom 8.0820000000000007 0.0000000000000000 16.4287092513874207 Al
atom 0.0000000000000000 2.8574185027748387 16.4287092513874207 Al
atom 4.0410000000000004 2.8574185027748387 16.4287092513874207 Al
atom 8.0820000000000007 2.8574185027748387 16.4287092513874207 Al
atom 0.0000000000000000 5.7148370055496773 16.4287092513874207 Al
atom 4.0410000000000004 5.7148370055496773 16.4287092513874207 Al
atom 8.0820000000000007 5.7148370055496773 16.4287092513874207 Al
atom 2.0205000000000002 1.4287092513874193 17.8574185027748413 Al
atom 6.0615000000000006 1.4287092513874193 17.8574185027748413 Al
atom 10.1025000000000009 1.4287092513874193 17.8574185027748413 Al
atom 2.0205000000000002 4.2861277541622584 17.8574185027748413 Al
atom 6.0615000000000006 4.2861277541622584 17.8574185027748413 Al
atom 10.1025000000000009 4.2861277541622584 17.8574185027748413 Al
atom 2.0205000000000002 7.1435462569370962 17.8574185027748413 Al
atom 6.0615000000000006 7.1435462569370962 17.8574185027748413 Al
atom 10.1025000000000009 7.1435462569370962 17.8574185027748413 Al
atom 0.0000000000000000 0.0000000000000000 19.2861277541622584 Al
atom 4.0410000000000004 0.0000000000000000 19.2861277541622584 Al
atom 8.0820000000000007 0.0000000000000000 19.2861277541622584 Al
atom 0.0000000000000000 2.8574185027748387 19.2861277541622584 Al
atom 4.0410000000000004 2.8574185027748387 19.2861277541622584 Al
atom 8.0820000000000007 2.8574185027748387 19.2861277541622584 Al
atom 0.0000000000000000 5.7148370055496773 19.2861277541622584 Al
atom 4.0410000000000004 5.7148370055496773 19.2861277541622584 Al
atom 8.0820000000000007 5.7148370055496773 19.2861277541622584 Al
atom 2.0370301540460405 3.9082767493765540 20.3112208920161805 C
atom 3.2970151540460408 3.9082767493765540 21.1667708920161814 C
atom 4.4265951540460406 3.9082767493765540 20.3363178920161829 O
	 constrain_relaxation .true.
atom 1.1402951540460404 3.9082767493765540 20.9704898920161824 H
atom 2.0250111540460405 2.9990187493765541 19.6694468920161825 H
atom 2.0249991540460406 4.8170867493765543 19.6688118920161799 H
atom 3.3090341540460404 4.8175347493765539 21.8085448920161795 H
atom 3.3090461540460407 4.8170867493765543 21.8091798920161821 H
atom 5.1811091540460410 3.9082767493765540 20.9002968920161791 H
