#=======================================================
# FHI-aims file: geometry1.in
# Created using the Atomic Simulation Environment (ASE)
# Thu Oct 29 00:09:10 2020
#=======================================================
lattice_vector 12.1230000000000011 0.0000000000000000 0.0000000000000000 
lattice_vector 0.0000000000000000 8.5722555083245169 0.0000000000000000 
lattice_vector 0.0000000000000000 0.0000000000000000 37.2273152637647584 
atom 2.0205000000000002 1.4287092513874193 14.9999999999999982 Al
    constrain_relaxation .true.
atom 6.0615000000000006 1.4287092513874193 14.9999999999999982 Al
    constrain_relaxation .true.
atom 10.1025000000000009 1.4287092513874193 14.9999999999999982 Al
    constrain_relaxation .true.
atom 2.0205000000000002 4.2861277541622584 14.9999999999999982 Al
    constrain_relaxation .true.
atom 6.0615000000000006 4.2861277541622584 14.9999999999999982 Al
    constrain_relaxation .true.
atom 10.1025000000000009 4.2861277541622584 14.9999999999999982 Al
    constrain_relaxation .true.
atom 2.0205000000000002 7.1435462569370962 14.9999999999999982 Al
    constrain_relaxation .true.
atom 6.0615000000000006 7.1435462569370962 14.9999999999999982 Al
    constrain_relaxation .true.
atom 10.1025000000000009 7.1435462569370962 14.9999999999999982 Al
    constrain_relaxation .true.
atom 0.0000000000000000 0.0000000000000000 16.4287092513874171 Al
atom 4.0410000000000004 0.0000000000000000 16.4287092513874171 Al
atom 8.0820000000000007 0.0000000000000000 16.4287092513874171 Al
atom 0.0000000000000000 2.8574185027748387 16.4287092513874171 Al
atom 4.0410000000000004 2.8574185027748387 16.4287092513874171 Al
atom 8.0820000000000007 2.8574185027748387 16.4287092513874171 Al
atom 0.0000000000000000 5.7148370055496773 16.4287092513874171 Al
atom 4.0410000000000004 5.7148370055496773 16.4287092513874171 Al
atom 8.0820000000000007 5.7148370055496773 16.4287092513874171 Al
atom 2.0205000000000002 1.4287092513874193 17.8574185027748378 Al
atom 6.0615000000000006 1.4287092513874193 17.8574185027748378 Al
atom 10.1025000000000009 1.4287092513874193 17.8574185027748378 Al
atom 2.0205000000000002 4.2861277541622584 17.8574185027748378 Al
atom 6.0615000000000006 4.2861277541622584 17.8574185027748378 Al
atom 10.1025000000000009 4.2861277541622584 17.8574185027748378 Al
atom 2.0205000000000002 7.1435462569370962 17.8574185027748378 Al
atom 6.0615000000000006 7.1435462569370962 17.8574185027748378 Al
atom 10.1025000000000009 7.1435462569370962 17.8574185027748378 Al
atom 0.0000000000000000 0.0000000000000000 19.2861277541622584 Al
atom 4.0410000000000004 0.0000000000000000 19.2861277541622584 Al
atom 8.0820000000000007 0.0000000000000000 19.2861277541622584 Al
atom 0.0000000000000000 2.8574185027748387 19.2861277541622584 Al
atom 4.0410000000000004 2.8574185027748387 19.2861277541622584 Al
atom 8.0820000000000007 2.8574185027748387 19.2861277541622584 Al
atom 0.0000000000000000 5.7148370055496773 19.2861277541622584 Al
atom 4.0410000000000004 5.7148370055496773 19.2861277541622584 Al
atom 8.0820000000000007 5.7148370055496773 19.2861277541622584 Al
atom 2.9166040046579154 4.9209092030350119 20.7293562637647604 C
atom 4.1765890046579157 4.9209092030350119 21.5849062637647577 C
atom 5.3061690046579155 4.9209092030350119 20.7544532637647592 O
	 constrain_relaxation .true.
atom 2.0198690046579153 4.9209092030350119 21.3886252637647587 H
atom 2.9045850046579154 4.0116512030350115 20.0875822637647587 H
atom 2.9045730046579155 5.8297192030350118 20.0869472637647597 H
atom 4.1886080046579153 5.8301672030350122 22.2266802637647594 H
atom 4.1886200046579152 5.8297192030350118 22.2273152637647584 H
atom 6.0606830046579159 4.9209092030350119 21.3184322637647590 H
