#=======================================================
# FHI-aims file: geometry1.in
# Created using the Atomic Simulation Environment (ASE)
# Thu Oct 29 00:09:11 2020
#=======================================================
lattice_vector 12.1230000000000011 0.0000000000000000 0.0000000000000000 
lattice_vector 0.0000000000000000 8.5722555083245169 0.0000000000000000 
lattice_vector 0.0000000000000000 0.0000000000000000 37.5189552833519286 
atom 2.0205000000000002 1.4287092513874193 14.9999999999999982 Al
    constrain_relaxation .true.
atom 6.0615000000000006 1.4287092513874193 14.9999999999999982 Al
    constrain_relaxation .true.
atom 10.1025000000000009 1.4287092513874193 14.9999999999999982 Al
    constrain_relaxation .true.
atom 2.0205000000000002 4.2861277541622584 14.9999999999999982 Al
    constrain_relaxation .true.
atom 6.0615000000000006 4.2861277541622584 14.9999999999999982 Al
    constrain_relaxation .true.
atom 10.1025000000000009 4.2861277541622584 14.9999999999999982 Al
    constrain_relaxation .true.
atom 2.0205000000000002 7.1435462569370962 14.9999999999999982 Al
    constrain_relaxation .true.
atom 6.0615000000000006 7.1435462569370962 14.9999999999999982 Al
    constrain_relaxation .true.
atom 10.1025000000000009 7.1435462569370962 14.9999999999999982 Al
    constrain_relaxation .true.
atom 0.0000000000000000 0.0000000000000000 16.4287092513874171 Al
atom 4.0410000000000004 0.0000000000000000 16.4287092513874171 Al
atom 8.0820000000000007 0.0000000000000000 16.4287092513874171 Al
atom 0.0000000000000000 2.8574185027748387 16.4287092513874171 Al
atom 4.0410000000000004 2.8574185027748387 16.4287092513874171 Al
atom 8.0820000000000007 2.8574185027748387 16.4287092513874171 Al
atom 0.0000000000000000 5.7148370055496773 16.4287092513874171 Al
atom 4.0410000000000004 5.7148370055496773 16.4287092513874171 Al
atom 8.0820000000000007 5.7148370055496773 16.4287092513874171 Al
atom 2.0205000000000002 1.4287092513874193 17.8574185027748378 Al
atom 6.0615000000000006 1.4287092513874193 17.8574185027748378 Al
atom 10.1025000000000009 1.4287092513874193 17.8574185027748378 Al
atom 2.0205000000000002 4.2861277541622584 17.8574185027748378 Al
atom 6.0615000000000006 4.2861277541622584 17.8574185027748378 Al
atom 10.1025000000000009 4.2861277541622584 17.8574185027748378 Al
atom 2.0205000000000002 7.1435462569370962 17.8574185027748378 Al
atom 6.0615000000000006 7.1435462569370962 17.8574185027748378 Al
atom 10.1025000000000009 7.1435462569370962 17.8574185027748378 Al
atom 0.0000000000000000 0.0000000000000000 19.2861277541622584 Al
atom 4.0410000000000004 0.0000000000000000 19.2861277541622584 Al
atom 8.0820000000000007 0.0000000000000000 19.2861277541622584 Al
atom 0.0000000000000000 2.8574185027748387 19.2861277541622584 Al
atom 4.0410000000000004 2.8574185027748387 19.2861277541622584 Al
atom 8.0820000000000007 2.8574185027748387 19.2861277541622584 Al
atom 0.0000000000000000 5.7148370055496773 19.2861277541622584 Al
atom 4.0410000000000004 5.7148370055496773 19.2861277541622584 Al
atom 8.0820000000000007 5.7148370055496773 19.2861277541622584 Al
atom 1.6558837379165929 3.5910218204433249 21.0209962833519306 C
atom 2.9158687379165933 3.5910218204433249 21.8765462833519280 C
atom 4.0454487379165931 3.5910218204433249 21.0460932833519294 O
	 constrain_relaxation .true.
atom 0.7591487379165929 3.5910218204433249 21.6802652833519289 H
atom 1.6438647379165929 2.6817638204433250 20.3792222833519290 H
atom 1.6438527379165930 4.4998318204433252 20.3785872833519299 H
atom 2.9278877379165928 4.5002798204433248 22.5183202833519296 H
atom 2.9278997379165932 4.4998318204433252 22.5189552833519286 H
atom 4.7999627379165934 3.5910218204433249 21.6100722833519292 H
