# 
# This is the geometry file that corresponds to the current relaxation step.
# If you do not want this file to be written, set the "write_restart_geometry" flag to .false.
#  aims_uuid : 9D0F0622-BA36-4B37-A4B2-A3B270464C60                                
# 
lattice_vector     12.12300000      0.00000000      0.00000000
lattice_vector      0.00000000      8.57225551      0.00000000
lattice_vector      0.00000000      0.00000000     37.25930026
atom       2.02050000      1.42870925     15.00000000 Al
  constrain_relaxation .true.
atom       6.06150000      1.42870925     15.00000000 Al
  constrain_relaxation .true.
atom      10.10250000      1.42870925     15.00000000 Al
  constrain_relaxation .true.
atom       2.02050000      4.28612775     15.00000000 Al
  constrain_relaxation .true.
atom       6.06150000      4.28612775     15.00000000 Al
  constrain_relaxation .true.
atom      10.10250000      4.28612775     15.00000000 Al
  constrain_relaxation .true.
atom       2.02050000      7.14354626     15.00000000 Al
  constrain_relaxation .true.
atom       6.06150000      7.14354626     15.00000000 Al
  constrain_relaxation .true.
atom      10.10250000      7.14354626     15.00000000 Al
  constrain_relaxation .true.
atom      -0.01517072      0.03897369     16.29143521 Al
atom       4.04530241      0.00051984     16.25538061 Al
atom       8.06597520     -0.02690979     16.32104754 Al
atom      -0.01133898      2.86732825     16.23706232 Al
atom       4.03159277      2.88349388     16.33860430 Al
atom       8.06387143      2.85810570     16.31046500 Al
atom      -0.01974107      5.73949142     16.25595367 Al
atom       4.05043243      5.75113437     16.25465559 Al
atom       8.05732280      5.67190260     16.30166044 Al
atom       2.07718627      1.43421086     17.76097257 Al
atom       6.02021829      1.44783995     17.74603981 Al
atom       9.98301531      1.44689316     17.90155637 Al
atom       2.03370131      4.42416193     17.65700451 Al
atom       5.91658651      4.30053872     17.87604219 Al
atom      10.06355402      4.29426495     17.85476801 Al
atom       2.00310423      7.21969388     17.79544643 Al
atom       6.03303686      7.09284249     17.79440912 Al
atom      10.05655406      7.15269907     17.82102020 Al
atom      -0.04156627      0.05265139     19.09091858 Al
atom       4.07674332     -0.03579708     19.12996712 Al
atom       8.03595526     -0.16322493     19.19183258 Al
atom       0.00885458      2.88264556     18.96253136 Al
atom       6.12568756      1.25476568     20.44804537 Al
atom       7.90612411      2.92056051     19.21675660 Al
atom      -0.04365535      5.80526842     19.06777575 Al
atom       3.93874977      5.78896409     19.16936687 Al
atom       8.04818298      5.65955796     19.14145037 Al
atom       1.58003496      3.08641044     20.14075750 O
  constrain_relaxation .true.
atom       2.11953856      3.92525381     20.01055743 H
atom       1.81610256      2.54189610     21.49745539 C
atom       1.34348552      1.54924144     21.47475217 H
atom       2.90358392      2.40725159     21.59131978 H
atom       1.23916027      3.43395439     22.57754137 C
atom       1.43055013      2.98152481     23.56183405 H
atom       1.70338006      4.42996714     22.56587104 H
atom       0.15345066      3.55342868     22.45856518 H
