#=======================================================
# FHI-aims file: geometry1.in
# Created using the Atomic Simulation Environment (ASE)
# Thu Oct 29 00:09:09 2020
#=======================================================
lattice_vector 12.1230000000000011 0.0000000000000000 0.0000000000000000 
lattice_vector 0.0000000000000000 8.5722555083245169 0.0000000000000000 
lattice_vector 0.0000000000000000 0.0000000000000000 38.5380162010897607 
atom 2.0205000000000002 1.4287092513874193 15.0000000000000000 Al
    constrain_relaxation .true.
atom 6.0615000000000006 1.4287092513874193 15.0000000000000000 Al
    constrain_relaxation .true.
atom 10.1025000000000009 1.4287092513874193 15.0000000000000000 Al
    constrain_relaxation .true.
atom 2.0205000000000002 4.2861277541622584 15.0000000000000000 Al
    constrain_relaxation .true.
atom 6.0615000000000006 4.2861277541622584 15.0000000000000000 Al
    constrain_relaxation .true.
atom 10.1025000000000009 4.2861277541622584 15.0000000000000000 Al
    constrain_relaxation .true.
atom 2.0205000000000002 7.1435462569370962 15.0000000000000000 Al
    constrain_relaxation .true.
atom 6.0615000000000006 7.1435462569370962 15.0000000000000000 Al
    constrain_relaxation .true.
atom 10.1025000000000009 7.1435462569370962 15.0000000000000000 Al
    constrain_relaxation .true.
atom 0.0000000000000000 0.0000000000000000 16.4287092513874207 Al
atom 4.0410000000000004 0.0000000000000000 16.4287092513874207 Al
atom 8.0820000000000007 0.0000000000000000 16.4287092513874207 Al
atom 0.0000000000000000 2.8574185027748387 16.4287092513874207 Al
atom 4.0410000000000004 2.8574185027748387 16.4287092513874207 Al
atom 8.0820000000000007 2.8574185027748387 16.4287092513874207 Al
atom 0.0000000000000000 5.7148370055496773 16.4287092513874207 Al
atom 4.0410000000000004 5.7148370055496773 16.4287092513874207 Al
atom 8.0820000000000007 5.7148370055496773 16.4287092513874207 Al
atom 2.0205000000000002 1.4287092513874193 17.8574185027748378 Al
atom 6.0615000000000006 1.4287092513874193 17.8574185027748378 Al
atom 10.1025000000000009 1.4287092513874193 17.8574185027748378 Al
atom 2.0205000000000002 4.2861277541622584 17.8574185027748378 Al
atom 6.0615000000000006 4.2861277541622584 17.8574185027748378 Al
atom 10.1025000000000009 4.2861277541622584 17.8574185027748378 Al
atom 2.0205000000000002 7.1435462569370962 17.8574185027748378 Al
atom 6.0615000000000006 7.1435462569370962 17.8574185027748378 Al
atom 10.1025000000000009 7.1435462569370962 17.8574185027748378 Al
atom 0.0000000000000000 0.0000000000000000 19.2861277541622584 Al
atom 4.0410000000000004 0.0000000000000000 19.2861277541622584 Al
atom 8.0820000000000007 0.0000000000000000 19.2861277541622584 Al
atom 0.0000000000000000 2.8574185027748387 19.2861277541622584 Al
atom 4.0410000000000004 2.8574185027748387 19.2861277541622584 Al
atom 8.0820000000000007 2.8574185027748387 19.2861277541622584 Al
atom 0.0000000000000000 5.7148370055496773 19.2861277541622584 Al
atom 4.0410000000000004 5.7148370055496773 19.2861277541622584 Al
atom 8.0820000000000007 5.7148370055496773 19.2861277541622584 Al
atom 1.7328855723756496 4.9556569411593472 22.0400572010897591 C
atom 2.9928705723756499 4.9556569411593472 22.8956072010897600 C
atom 4.1224505723756497 4.9556569411593472 22.0651542010897579 O
	 constrain_relaxation .true.
atom 0.8361505723756495 4.9556569411593472 22.6993262010897610 H
atom 1.7208665723756496 4.0463989411593468 21.3982832010897610 H
atom 1.7208545723756496 5.8644669411593471 21.3976482010897584 H
atom 3.0048895723756495 5.8649149411593475 23.5373812010897581 H
atom 3.0049015723756498 5.8644669411593471 23.5380162010897607 H
atom 4.8769645723756501 4.9556569411593472 22.6291332010897577 H
