#=======================================================
# FHI-aims file: geometry1.in
# Created using the Atomic Simulation Environment (ASE)
# Thu Oct 29 00:09:08 2020
#=======================================================
lattice_vector 12.1230000000000011 0.0000000000000000 0.0000000000000000 
lattice_vector 0.0000000000000000 8.5722555083245169 0.0000000000000000 
lattice_vector 0.0000000000000000 0.0000000000000000 37.5084081210328151 
atom 2.0205000000000002 1.4287092513874193 15.0000000000000000 Al
    constrain_relaxation .true.
atom 6.0615000000000006 1.4287092513874193 15.0000000000000000 Al
    constrain_relaxation .true.
atom 10.1025000000000009 1.4287092513874193 15.0000000000000000 Al
    constrain_relaxation .true.
atom 2.0205000000000002 4.2861277541622584 15.0000000000000000 Al
    constrain_relaxation .true.
atom 6.0615000000000006 4.2861277541622584 15.0000000000000000 Al
    constrain_relaxation .true.
atom 10.1025000000000009 4.2861277541622584 15.0000000000000000 Al
    constrain_relaxation .true.
atom 2.0205000000000002 7.1435462569370962 15.0000000000000000 Al
    constrain_relaxation .true.
atom 6.0615000000000006 7.1435462569370962 15.0000000000000000 Al
    constrain_relaxation .true.
atom 10.1025000000000009 7.1435462569370962 15.0000000000000000 Al
    constrain_relaxation .true.
atom 0.0000000000000000 0.0000000000000000 16.4287092513874207 Al
atom 4.0410000000000004 0.0000000000000000 16.4287092513874207 Al
atom 8.0820000000000007 0.0000000000000000 16.4287092513874207 Al
atom 0.0000000000000000 2.8574185027748387 16.4287092513874207 Al
atom 4.0410000000000004 2.8574185027748387 16.4287092513874207 Al
atom 8.0820000000000007 2.8574185027748387 16.4287092513874207 Al
atom 0.0000000000000000 5.7148370055496773 16.4287092513874207 Al
atom 4.0410000000000004 5.7148370055496773 16.4287092513874207 Al
atom 8.0820000000000007 5.7148370055496773 16.4287092513874207 Al
atom 2.0205000000000002 1.4287092513874193 17.8574185027748378 Al
atom 6.0615000000000006 1.4287092513874193 17.8574185027748378 Al
atom 10.1025000000000009 1.4287092513874193 17.8574185027748378 Al
atom 2.0205000000000002 4.2861277541622584 17.8574185027748378 Al
atom 6.0615000000000006 4.2861277541622584 17.8574185027748378 Al
atom 10.1025000000000009 4.2861277541622584 17.8574185027748378 Al
atom 2.0205000000000002 7.1435462569370962 17.8574185027748378 Al
atom 6.0615000000000006 7.1435462569370962 17.8574185027748378 Al
atom 10.1025000000000009 7.1435462569370962 17.8574185027748378 Al
atom 0.0000000000000000 0.0000000000000000 19.2861277541622584 Al
atom 4.0410000000000004 0.0000000000000000 19.2861277541622584 Al
atom 8.0820000000000007 0.0000000000000000 19.2861277541622584 Al
atom 0.0000000000000000 2.8574185027748387 19.2861277541622584 Al
atom 4.0410000000000004 2.8574185027748387 19.2861277541622584 Al
atom 8.0820000000000007 2.8574185027748387 19.2861277541622584 Al
atom 0.0000000000000000 5.7148370055496773 19.2861277541622584 Al
atom 4.0410000000000004 5.7148370055496773 19.2861277541622584 Al
atom 8.0820000000000007 5.7148370055496773 19.2861277541622584 Al
atom 2.7775391434151162 3.0484245534451295 21.0104491210328135 C
atom 4.0375241434151166 3.0484245534451295 21.8659991210328144 C
atom 5.1671041434151164 3.0484245534451295 21.0355461210328158 O
	 constrain_relaxation .true.
atom 1.8808041434151161 3.0484245534451295 21.6697181210328154 H
atom 2.7655201434151162 2.1391665534451296 20.3686751210328154 H
atom 2.7655081434151163 3.9572345534451294 20.3680401210328128 H
atom 4.0495431434151161 3.9576825534451294 22.5077731210328160 H
atom 4.0495551434151160 3.9572345534451294 22.5084081210328151 H
atom 5.9216181434151167 3.0484245534451295 21.5995251210328156 H
