#=======================================================
# FHI-aims file: geometry1.in
# Created using the Atomic Simulation Environment (ASE)
# Thu Oct 29 00:09:08 2020
#=======================================================
lattice_vector 12.1230000000000011 0.0000000000000000 0.0000000000000000 
lattice_vector 0.0000000000000000 8.5722555083245169 0.0000000000000000 
lattice_vector 0.0000000000000000 0.0000000000000000 37.9195742791635126 
atom 2.0205000000000002 1.4287092513874193 15.0000000000000000 Al
    constrain_relaxation .true.
atom 6.0615000000000006 1.4287092513874193 15.0000000000000000 Al
    constrain_relaxation .true.
atom 10.1025000000000009 1.4287092513874193 15.0000000000000000 Al
    constrain_relaxation .true.
atom 2.0205000000000002 4.2861277541622584 15.0000000000000000 Al
    constrain_relaxation .true.
atom 6.0615000000000006 4.2861277541622584 15.0000000000000000 Al
    constrain_relaxation .true.
atom 10.1025000000000009 4.2861277541622584 15.0000000000000000 Al
    constrain_relaxation .true.
atom 2.0205000000000002 7.1435462569370962 15.0000000000000000 Al
    constrain_relaxation .true.
atom 6.0615000000000006 7.1435462569370962 15.0000000000000000 Al
    constrain_relaxation .true.
atom 10.1025000000000009 7.1435462569370962 15.0000000000000000 Al
    constrain_relaxation .true.
atom 0.0000000000000000 0.0000000000000000 16.4287092513874207 Al
atom 4.0410000000000004 0.0000000000000000 16.4287092513874207 Al
atom 8.0820000000000007 0.0000000000000000 16.4287092513874207 Al
atom 0.0000000000000000 2.8574185027748387 16.4287092513874207 Al
atom 4.0410000000000004 2.8574185027748387 16.4287092513874207 Al
atom 8.0820000000000007 2.8574185027748387 16.4287092513874207 Al
atom 0.0000000000000000 5.7148370055496773 16.4287092513874207 Al
atom 4.0410000000000004 5.7148370055496773 16.4287092513874207 Al
atom 8.0820000000000007 5.7148370055496773 16.4287092513874207 Al
atom 2.0205000000000002 1.4287092513874193 17.8574185027748378 Al
atom 6.0615000000000006 1.4287092513874193 17.8574185027748378 Al
atom 10.1025000000000009 1.4287092513874193 17.8574185027748378 Al
atom 2.0205000000000002 4.2861277541622584 17.8574185027748378 Al
atom 6.0615000000000006 4.2861277541622584 17.8574185027748378 Al
atom 10.1025000000000009 4.2861277541622584 17.8574185027748378 Al
atom 2.0205000000000002 7.1435462569370962 17.8574185027748378 Al
atom 6.0615000000000006 7.1435462569370962 17.8574185027748378 Al
atom 10.1025000000000009 7.1435462569370962 17.8574185027748378 Al
atom 0.0000000000000000 0.0000000000000000 19.2861277541622584 Al
atom 4.0410000000000004 0.0000000000000000 19.2861277541622584 Al
atom 8.0820000000000007 0.0000000000000000 19.2861277541622584 Al
atom 0.0000000000000000 2.8574185027748387 19.2861277541622584 Al
atom 4.0410000000000004 2.8574185027748387 19.2861277541622584 Al
atom 8.0820000000000007 2.8574185027748387 19.2861277541622584 Al
atom 0.0000000000000000 5.7148370055496773 19.2861277541622584 Al
atom 4.0410000000000004 5.7148370055496773 19.2861277541622584 Al
atom 8.0820000000000007 5.7148370055496773 19.2861277541622584 Al
atom 3.4310264591423891 4.6538780300006763 21.4216152791635110 C
atom 4.6910114591423895 4.6538780300006763 22.2771652791635120 C
atom 5.8205914591423893 4.6538780300006763 21.4467122791635134 O
	 constrain_relaxation .true.
atom 2.5342914591423891 4.6538780300006763 22.0808842791635129 H
atom 3.4190074591423891 3.7446200300006764 20.7798412791635130 H
atom 3.4189954591423892 5.5626880300006762 20.7792062791635104 H
atom 4.7030304591423890 5.5631360300006767 22.9189392791635136 H
atom 4.7030424591423898 5.5626880300006762 22.9195742791635126 H
atom 6.5751054591423896 4.6538780300006763 22.0106912791635132 H
