#=======================================================
# FHI-aims file: geometry1.in
# Created using the Atomic Simulation Environment (ASE)
# Thu Oct 29 00:09:11 2020
#=======================================================
lattice_vector 12.1230000000000011 0.0000000000000000 0.0000000000000000 
lattice_vector 0.0000000000000000 8.5722555083245169 0.0000000000000000 
lattice_vector 0.0000000000000000 0.0000000000000000 38.5297515511903441 
atom 2.0205000000000002 1.4287092513874193 15.0000000000000018 Al
    constrain_relaxation .true.
atom 6.0615000000000006 1.4287092513874193 15.0000000000000018 Al
    constrain_relaxation .true.
atom 10.1025000000000009 1.4287092513874193 15.0000000000000018 Al
    constrain_relaxation .true.
atom 2.0205000000000002 4.2861277541622584 15.0000000000000018 Al
    constrain_relaxation .true.
atom 6.0615000000000006 4.2861277541622584 15.0000000000000018 Al
    constrain_relaxation .true.
atom 10.1025000000000009 4.2861277541622584 15.0000000000000018 Al
    constrain_relaxation .true.
atom 2.0205000000000002 7.1435462569370962 15.0000000000000018 Al
    constrain_relaxation .true.
atom 6.0615000000000006 7.1435462569370962 15.0000000000000018 Al
    constrain_relaxation .true.
atom 10.1025000000000009 7.1435462569370962 15.0000000000000018 Al
    constrain_relaxation .true.
atom 0.0000000000000000 0.0000000000000000 16.4287092513874207 Al
atom 4.0410000000000004 0.0000000000000000 16.4287092513874207 Al
atom 8.0820000000000007 0.0000000000000000 16.4287092513874207 Al
atom 0.0000000000000000 2.8574185027748387 16.4287092513874207 Al
atom 4.0410000000000004 2.8574185027748387 16.4287092513874207 Al
atom 8.0820000000000007 2.8574185027748387 16.4287092513874207 Al
atom 0.0000000000000000 5.7148370055496773 16.4287092513874207 Al
atom 4.0410000000000004 5.7148370055496773 16.4287092513874207 Al
atom 8.0820000000000007 5.7148370055496773 16.4287092513874207 Al
atom 2.0205000000000002 1.4287092513874193 17.8574185027748413 Al
atom 6.0615000000000006 1.4287092513874193 17.8574185027748413 Al
atom 10.1025000000000009 1.4287092513874193 17.8574185027748413 Al
atom 2.0205000000000002 4.2861277541622584 17.8574185027748413 Al
atom 6.0615000000000006 4.2861277541622584 17.8574185027748413 Al
atom 10.1025000000000009 4.2861277541622584 17.8574185027748413 Al
atom 2.0205000000000002 7.1435462569370962 17.8574185027748413 Al
atom 6.0615000000000006 7.1435462569370962 17.8574185027748413 Al
atom 10.1025000000000009 7.1435462569370962 17.8574185027748413 Al
atom 0.0000000000000000 0.0000000000000000 19.2861277541622584 Al
atom 4.0410000000000004 0.0000000000000000 19.2861277541622584 Al
atom 8.0820000000000007 0.0000000000000000 19.2861277541622584 Al
atom 0.0000000000000000 2.8574185027748387 19.2861277541622584 Al
atom 4.0410000000000004 2.8574185027748387 19.2861277541622584 Al
atom 8.0820000000000007 2.8574185027748387 19.2861277541622584 Al
atom 0.0000000000000000 5.7148370055496773 19.2861277541622584 Al
atom 4.0410000000000004 5.7148370055496773 19.2861277541622584 Al
atom 8.0820000000000007 5.7148370055496773 19.2861277541622584 Al
atom 2.5949271390176021 4.6641476737419794 22.0317925511903425 C
atom 3.8549121390176024 4.6641476737419794 22.8873425511903434 C
atom 4.9844921390176022 4.6641476737419794 22.0568895511903449 O
	 constrain_relaxation .true.
atom 1.6981921390176020 4.6641476737419794 22.6910615511903444 H
atom 2.5829081390176021 3.7548896737419795 21.3900185511903445 H
atom 2.5828961390176022 5.5729576737419793 21.3893835511903418 H
atom 3.8669311390176020 5.5734056737419797 23.5291165511903415 H
atom 3.8669431390176023 5.5729576737419793 23.5297515511903441 H
atom 5.7390061390176026 4.6641476737419794 22.6208685511903411 H
