#=======================================================
# FHI-aims file: geometry1.in
# Created using the Atomic Simulation Environment (ASE)
# Thu Oct 29 00:09:18 2020
#=======================================================
lattice_vector 12.1230000000000011 0.0000000000000000 0.0000000000000000 
lattice_vector 0.0000000000000000 8.5722555083245169 0.0000000000000000 
lattice_vector 0.0000000000000000 0.0000000000000000 37.0272683035348038 
atom 2.0205000000000002 1.4287092513874193 15.0000000000000000 Al
    constrain_relaxation .true.
atom 6.0615000000000006 1.4287092513874193 15.0000000000000000 Al
    constrain_relaxation .true.
atom 10.1025000000000009 1.4287092513874193 15.0000000000000000 Al
    constrain_relaxation .true.
atom 2.0205000000000002 4.2861277541622584 15.0000000000000000 Al
    constrain_relaxation .true.
atom 6.0615000000000006 4.2861277541622584 15.0000000000000000 Al
    constrain_relaxation .true.
atom 10.1025000000000009 4.2861277541622584 15.0000000000000000 Al
    constrain_relaxation .true.
atom 2.0205000000000002 7.1435462569370962 15.0000000000000000 Al
    constrain_relaxation .true.
atom 6.0615000000000006 7.1435462569370962 15.0000000000000000 Al
    constrain_relaxation .true.
atom 10.1025000000000009 7.1435462569370962 15.0000000000000000 Al
    constrain_relaxation .true.
atom 0.0000000000000000 0.0000000000000000 16.4287092513874207 Al
atom 4.0410000000000004 0.0000000000000000 16.4287092513874207 Al
atom 8.0820000000000007 0.0000000000000000 16.4287092513874207 Al
atom 0.0000000000000000 2.8574185027748387 16.4287092513874207 Al
atom 4.0410000000000004 2.8574185027748387 16.4287092513874207 Al
atom 8.0820000000000007 2.8574185027748387 16.4287092513874207 Al
atom 0.0000000000000000 5.7148370055496773 16.4287092513874207 Al
atom 4.0410000000000004 5.7148370055496773 16.4287092513874207 Al
atom 8.0820000000000007 5.7148370055496773 16.4287092513874207 Al
atom 2.0205000000000002 1.4287092513874193 17.8574185027748378 Al
atom 6.0615000000000006 1.4287092513874193 17.8574185027748378 Al
atom 10.1025000000000009 1.4287092513874193 17.8574185027748378 Al
atom 2.0205000000000002 4.2861277541622584 17.8574185027748378 Al
atom 6.0615000000000006 4.2861277541622584 17.8574185027748378 Al
atom 10.1025000000000009 4.2861277541622584 17.8574185027748378 Al
atom 2.0205000000000002 7.1435462569370962 17.8574185027748378 Al
atom 6.0615000000000006 7.1435462569370962 17.8574185027748378 Al
atom 10.1025000000000009 7.1435462569370962 17.8574185027748378 Al
atom 0.0000000000000000 0.0000000000000000 19.2861277541622584 Al
atom 4.0410000000000004 0.0000000000000000 19.2861277541622584 Al
atom 8.0820000000000007 0.0000000000000000 19.2861277541622584 Al
atom 0.0000000000000000 2.8574185027748387 19.2861277541622584 Al
atom 4.0410000000000004 2.8574185027748387 19.2861277541622584 Al
atom 8.0820000000000007 2.8574185027748387 19.2861277541622584 Al
atom 0.0000000000000000 5.7148370055496773 19.2861277541622584 Al
atom 4.0410000000000004 5.7148370055496773 19.2861277541622584 Al
atom 8.0820000000000007 5.7148370055496773 19.2861277541622584 Al
atom 3.3102527237713195 3.5003372068225369 20.5293093035348022 C
atom 4.5702377237713199 3.5003372068225369 21.3848593035348031 C
atom 5.6998177237713197 3.5003372068225369 20.5544063035348046 O
	 constrain_relaxation .true.
atom 2.4135177237713195 3.5003372068225369 21.1885783035348041 H
atom 3.2982337237713195 2.5910792068225370 19.8875353035348041 H
atom 3.2982217237713196 4.4091472068225368 19.8869003035348015 H
atom 4.5822567237713194 4.4095952068225372 22.0266333035348012 H
atom 4.5822687237713193 4.4091472068225368 22.0272683035348038 H
atom 6.4543317237713200 3.5003372068225369 21.1183853035348008 H
