#=======================================================
# FHI-aims file: geometry1.in
# Created using the Atomic Simulation Environment (ASE)
# Thu Oct 29 00:09:15 2020
#=======================================================
lattice_vector 12.1230000000000011 0.0000000000000000 0.0000000000000000 
lattice_vector 0.0000000000000000 8.5722555083245169 0.0000000000000000 
lattice_vector 0.0000000000000000 0.0000000000000000 37.5047813047806216 
atom 2.0205000000000002 1.4287092513874193 15.0000000000000018 Al
    constrain_relaxation .true.
atom 6.0615000000000006 1.4287092513874193 15.0000000000000018 Al
    constrain_relaxation .true.
atom 10.1025000000000009 1.4287092513874193 15.0000000000000018 Al
    constrain_relaxation .true.
atom 2.0205000000000002 4.2861277541622584 15.0000000000000018 Al
    constrain_relaxation .true.
atom 6.0615000000000006 4.2861277541622584 15.0000000000000018 Al
    constrain_relaxation .true.
atom 10.1025000000000009 4.2861277541622584 15.0000000000000018 Al
    constrain_relaxation .true.
atom 2.0205000000000002 7.1435462569370962 15.0000000000000018 Al
    constrain_relaxation .true.
atom 6.0615000000000006 7.1435462569370962 15.0000000000000018 Al
    constrain_relaxation .true.
atom 10.1025000000000009 7.1435462569370962 15.0000000000000018 Al
    constrain_relaxation .true.
atom 0.0000000000000000 0.0000000000000000 16.4287092513874207 Al
atom 4.0410000000000004 0.0000000000000000 16.4287092513874207 Al
atom 8.0820000000000007 0.0000000000000000 16.4287092513874207 Al
atom 0.0000000000000000 2.8574185027748387 16.4287092513874207 Al
atom 4.0410000000000004 2.8574185027748387 16.4287092513874207 Al
atom 8.0820000000000007 2.8574185027748387 16.4287092513874207 Al
atom 0.0000000000000000 5.7148370055496773 16.4287092513874207 Al
atom 4.0410000000000004 5.7148370055496773 16.4287092513874207 Al
atom 8.0820000000000007 5.7148370055496773 16.4287092513874207 Al
atom 2.0205000000000002 1.4287092513874193 17.8574185027748413 Al
atom 6.0615000000000006 1.4287092513874193 17.8574185027748413 Al
atom 10.1025000000000009 1.4287092513874193 17.8574185027748413 Al
atom 2.0205000000000002 4.2861277541622584 17.8574185027748413 Al
atom 6.0615000000000006 4.2861277541622584 17.8574185027748413 Al
atom 10.1025000000000009 4.2861277541622584 17.8574185027748413 Al
atom 2.0205000000000002 7.1435462569370962 17.8574185027748413 Al
atom 6.0615000000000006 7.1435462569370962 17.8574185027748413 Al
atom 10.1025000000000009 7.1435462569370962 17.8574185027748413 Al
atom 0.0000000000000000 0.0000000000000000 19.2861277541622584 Al
atom 4.0410000000000004 0.0000000000000000 19.2861277541622584 Al
atom 8.0820000000000007 0.0000000000000000 19.2861277541622584 Al
atom 0.0000000000000000 2.8574185027748387 19.2861277541622584 Al
atom 4.0410000000000004 2.8574185027748387 19.2861277541622584 Al
atom 8.0820000000000007 2.8574185027748387 19.2861277541622584 Al
atom 0.0000000000000000 5.7148370055496773 19.2861277541622584 Al
atom 4.0410000000000004 5.7148370055496773 19.2861277541622584 Al
atom 8.0820000000000007 5.7148370055496773 19.2861277541622584 Al
atom 1.2113488698341479 4.5846100868115505 21.0068223047806200 C
atom 2.4713338698341483 4.5846100868115505 21.8623723047806209 C
atom 3.6009138698341481 4.5846100868115505 21.0319193047806188 O
	 constrain_relaxation .true.
atom 0.3146138698341479 4.5846100868115505 21.6660913047806218 H
atom 1.1993298698341479 3.6753520868115506 20.3650483047806219 H
atom 1.1993178698341480 5.4934200868115504 20.3644133047806193 H
atom 2.4833528698341478 5.4938680868115508 22.5041463047806189 H
atom 2.4833648698341482 5.4934200868115504 22.5047813047806216 H
atom 4.3554278698341484 4.5846100868115505 21.5958983047806186 H
